g9 0 1 0 0 20170614 0 4 0 240	# problem tointqor
 50 0 1 0 0	# vars, constraints, objectives, ranges, eqns
 0 1	# nonlinear constraints, objectives
 0 0	# network constraints: nonlinear, linear
 0 50 0	# nonlinear vars in constraints, objectives, both
 0 0 0 1	# linear network variables; functions; arith, flags
 0 0 0 0 0	# discrete variables: binary, integer, nonlinear (b,c,o)
 0 50	# nonzeros in Jacobian, gradients
 0 0	# max name lengths: constraints, variables
 0 0 0 0 0	# common exprs: b,c,o,c1,o1
b
3
3
3
3
3
3
3
3
3
3
3
3
3
3
3
3
3
3
3
3
3
3
3
3
3
3
3
3
3
3
3
3
3
3
3
3
3
3
3
3
3
3
3
3
3
3
3
3
3
3
O0 0
o54
83
o2
n1.25
o2
v0
v0
o2
n1.4
o2
v1
v1
o2
n2.4
o2
v2
v2
o2
n1.4
o2
v3
v3
o2
n1.75
o2
v4
v4
o2
n1.2
o2
v5
v5
o2
n2.25
o2
v6
v6
o2
n1.2
o2
v7
v7
o2
v8
v8
o2
n1.1
o2
v9
v9
o2
n1.5
o2
v10
v10
o2
n1.6
o2
v11
v11
o2
n1.25
o2
v12
v12
o2
n1.25
o2
v13
v13
o2
n1.2
o2
v14
v14
o2
n1.2
o2
v15
v15
o2
n1.4
o2
v16
v16
o2
n0.5
o2
v17
v17
o2
n0.5
o2
v18
v18
o2
n1.25
o2
v19
v19
o2
n1.7999999999999998
o2
v20
v20
o2
n0.75
o2
v21
v21
o2
n1.25
o2
v22
v22
o2
n1.4
o2
v23
v23
o2
n1.6
o2
v24
v24
o2
n2
o2
v25
v25
o2
v26
v26
o2
n1.6
o2
v27
v27
o2
n1.25
o2
v28
v28
o2
n2.75
o2
v29
v29
o2
n1.25
o2
v30
v30
o2
n1.25
o2
v31
v31
o2
n1.25
o2
v32
v32
o2
n3
o2
v33
v33
o2
n1.5
o2
v34
v34
o2
n2
o2
v35
v35
o2
n1.25
o2
v36
v36
o2
n1.4
o2
v37
v37
o2
n1.7999999999999998
o2
v38
v38
o2
n1.5
o2
v39
v39
o2
n2.2
o2
v40
v40
o2
n1.4
o2
v41
v41
o2
n1.5
o2
v42
v42
o2
n1.25
o2
v43
v43
o2
n2
o2
v44
v44
o2
n1.5
o2
v45
v45
o2
n1.25
o2
v46
v46
o2
n1.4
o2
v47
v47
o2
n0.6
o2
v48
v48
o2
n1.5
o2
v49
v49
o2
o54
3
n5
o16
v30
v0
o54
3
n5
o16
v30
v0
o2
n1.5
o2
o54
4
n5
o16
v0
v1
v2
o54
4
n5
o16
v0
v1
v2
o2
o54
4
n5
o16
v1
v3
v4
o54
4
n5
o16
v1
v3
v4
o2
n0.1
o2
o54
4
n2.5
o16
v3
v5
v6
o54
4
n2.5
o16
v3
v5
v6
o2
n1.5
o2
o54
4
n6
o16
v5
v7
v8
o54
4
n6
o16
v5
v7
v8
o2
n2
o2
o54
4
n6
o16
v7
v9
v10
o54
4
n6
o16
v7
v9
v10
o2
o54
4
n5
o16
v9
v11
v12
o54
4
n5
o16
v9
v11
v12
o2
n1.5
o2
o54
4
n6
o16
v11
v13
v14
o54
4
n6
o16
v11
v13
v14
o2
n3
o2
o54
4
n10
o1
o1
o16
v10
v12
v13
v15
v16
o54
4
n10
o1
o1
o16
v10
v12
v13
v15
v16
o2
n2
o2
o54
4
n6
o16
v15
v17
v18
o54
4
n6
o16
v15
v17
v18
o2
o54
3
n5
o1
o16
v8
v17
v19
o54
3
n5
o1
o16
v8
v17
v19
o2
n3
o2
o0
n9
o1
o1
o16
v4
v19
v20
o0
n9
o1
o1
o16
v4
v19
v20
o2
n0.1
o2
o54
5
n2
o16
v18
v21
v22
v23
o54
5
n2
o16
v18
v21
v22
v23
o2
n1.5
o2
o54
4
n7
o16
v22
v24
v25
o54
4
n7
o16
v22
v24
v25
o2
n0.15
o2
o54
4
n2.5
o1
o16
v6
v24
v26
v27
o54
4
n2.5
o1
o16
v6
v24
v26
v27
o2
n2
o2
o54
4
n6
o16
v27
v28
v29
o54
4
n6
o16
v27
v28
v29
o2
o54
4
n5
o16
v28
v30
v31
o54
4
n5
o16
v28
v30
v31
o2
n0.1
o2
o54
4
n2
o16
v31
v32
v33
o54
4
n2
o16
v31
v32
v33
o2
n3
o2
o54
3
n9
o1
o16
v2
v32
v34
o54
3
n9
o1
o16
v2
v32
v34
o2
n0.1
o2
o54
4
n2
o16
v34
v20
v35
o54
4
n2
o16
v34
v20
v35
o2
n1.2
o2
o54
4
n5
o16
v35
v36
v37
o54
4
n5
o16
v35
v36
v37
o2
o54
3
n5
o1
o16
v29
v36
v38
o54
3
n5
o1
o16
v29
v36
v38
o2
n0.1
o2
o54
3
n2.5
o1
o16
v37
v38
v39
o54
3
n2.5
o1
o16
v37
v38
v39
o2
n2
o2
o54
4
n5
o16
v39
v40
v41
o54
4
n5
o16
v39
v40
v41
o2
n1.2
o2
o54
5
n6
o16
v40
v42
v43
v49
o54
5
n6
o16
v40
v42
v43
v49
o2
n3
o2
o54
5
n10
o16
v43
v44
v45
v46
o54
5
n10
o16
v43
v44
v45
v46
o2
n1.5
o2
o54
3
n7
o16
v45
v47
o54
3
n7
o16
v45
v47
o2
n3
o2
o54
3
n10
o1
o1
o1
o16
v41
v44
v47
v49
v48
o54
3
n10
o1
o1
o1
o16
v41
v44
v47
v49
v48
o2
n2
o2
o0
n6
o1
o1
o16
v25
v33
v42
o0
n6
o1
o1
o16
v25
v33
v42
o2
o0
n5
o1
o1
o1
o16
v14
v16
v23
v46
o0
n5
o1
o1
o1
o16
v14
v16
v23
v46
o2
n1.2
o2
o0
n4
o16
v48
o0
n4
o16
v48
o2
n2
o2
o0
n4
o16
v21
o0
n4
o16
v21
o2
o0
n4
o16
v26
o0
n4
o16
v26
k49
0
0
0
0
0
0
0
0
0
0
0
0
0
0
0
0
0
0
0
0
0
0
0
0
0
0
0
0
0
0
0
0
0
0
0
0
0
0
0
0
0
0
0
0
0
0
0
0
0
G0 50
0 0
1 0
2 0
3 0
4 0
5 0
6 0
7 0
8 0
9 0
10 0
11 0
12 0
13 0
14 0
15 0
16 0
17 0
18 0
19 0
20 0
21 0
22 0
23 0
24 0
25 0
26 0
27 0
28 0
29 0
30 0
31 0
32 0
33 0
34 0
35 0
36 0
37 0
38 0
39 0
40 0
41 0
42 0
43 0
44 0
45 0
46 0
47 0
48 0
49 0
